24 82
16 20
4 9
0 5
17 21
5 19
11 14
0 14
11 23
6 11
18 19
12 18
3 15
14 15
0 7
9 19
13 19
7 12
18 21
12 20
3 17
0 9
5 23
1 10
13 21
1 19
7 23
3 10
5 7
0 2
5 16
3 19
12 15
3 12
4 11
19 20
8 20
10 17
6 22
12 17
3 23
21 22
12 19
17 18
0 11
1 18
0 20
11 20
15 20
12 21
14 18
4 17
10 14
1 11
2 10
15 22
7 18
8 10
17 22
11 15
2 12
0 15
2 21
18 20
12 16
4 12
1 6
5 22
19 21
0 17
6 23
4 5
4 14
2 7
9 22
13 22
16 18
21 23
4 16
3 20
17 19
11 12
7 8
